c *********************************
c * Circuit generated by BenCGen
c *
c * RippleCarryAdderSubtractor_110_110_110_OutSunT
c *
c * Ports with 1 gate(s): 2
c * Ports with 2 gate(s): 662
c * Total gates: 664
c *********************************
p cnf 884 2321
1 333 0
-1 -333 0
1 -332 0
333 -332 0
-1 -333 332 0
332 334 0
-332 -334 0
111 332 -335 0
-111 332 335 0
111 -332 335 0
-111 -332 -335 0
112 332 -336 0
-112 332 336 0
112 -332 336 0
-112 -332 -336 0
113 332 -337 0
-113 332 337 0
113 -332 337 0
-113 -332 -337 0
114 332 -338 0
-114 332 338 0
114 -332 338 0
-114 -332 -338 0
115 332 -339 0
-115 332 339 0
115 -332 339 0
-115 -332 -339 0
116 332 -340 0
-116 332 340 0
116 -332 340 0
-116 -332 -340 0
117 332 -341 0
-117 332 341 0
117 -332 341 0
-117 -332 -341 0
118 332 -342 0
-118 332 342 0
118 -332 342 0
-118 -332 -342 0
119 332 -343 0
-119 332 343 0
119 -332 343 0
-119 -332 -343 0
120 332 -344 0
-120 332 344 0
120 -332 344 0
-120 -332 -344 0
121 332 -345 0
-121 332 345 0
121 -332 345 0
-121 -332 -345 0
122 332 -346 0
-122 332 346 0
122 -332 346 0
-122 -332 -346 0
123 332 -347 0
-123 332 347 0
123 -332 347 0
-123 -332 -347 0
124 332 -348 0
-124 332 348 0
124 -332 348 0
-124 -332 -348 0
125 332 -349 0
-125 332 349 0
125 -332 349 0
-125 -332 -349 0
126 332 -350 0
-126 332 350 0
126 -332 350 0
-126 -332 -350 0
127 332 -351 0
-127 332 351 0
127 -332 351 0
-127 -332 -351 0
128 332 -352 0
-128 332 352 0
128 -332 352 0
-128 -332 -352 0
129 332 -353 0
-129 332 353 0
129 -332 353 0
-129 -332 -353 0
130 332 -354 0
-130 332 354 0
130 -332 354 0
-130 -332 -354 0
131 332 -355 0
-131 332 355 0
131 -332 355 0
-131 -332 -355 0
132 332 -356 0
-132 332 356 0
132 -332 356 0
-132 -332 -356 0
133 332 -357 0
-133 332 357 0
133 -332 357 0
-133 -332 -357 0
134 332 -358 0
-134 332 358 0
134 -332 358 0
-134 -332 -358 0
135 332 -359 0
-135 332 359 0
135 -332 359 0
-135 -332 -359 0
136 332 -360 0
-136 332 360 0
136 -332 360 0
-136 -332 -360 0
137 332 -361 0
-137 332 361 0
137 -332 361 0
-137 -332 -361 0
138 332 -362 0
-138 332 362 0
138 -332 362 0
-138 -332 -362 0
139 332 -363 0
-139 332 363 0
139 -332 363 0
-139 -332 -363 0
140 332 -364 0
-140 332 364 0
140 -332 364 0
-140 -332 -364 0
141 332 -365 0
-141 332 365 0
141 -332 365 0
-141 -332 -365 0
142 332 -366 0
-142 332 366 0
142 -332 366 0
-142 -332 -366 0
143 332 -367 0
-143 332 367 0
143 -332 367 0
-143 -332 -367 0
144 332 -368 0
-144 332 368 0
144 -332 368 0
-144 -332 -368 0
145 332 -369 0
-145 332 369 0
145 -332 369 0
-145 -332 -369 0
146 332 -370 0
-146 332 370 0
146 -332 370 0
-146 -332 -370 0
147 332 -371 0
-147 332 371 0
147 -332 371 0
-147 -332 -371 0
148 332 -372 0
-148 332 372 0
148 -332 372 0
-148 -332 -372 0
149 332 -373 0
-149 332 373 0
149 -332 373 0
-149 -332 -373 0
150 332 -374 0
-150 332 374 0
150 -332 374 0
-150 -332 -374 0
151 332 -375 0
-151 332 375 0
151 -332 375 0
-151 -332 -375 0
152 332 -376 0
-152 332 376 0
152 -332 376 0
-152 -332 -376 0
153 332 -377 0
-153 332 377 0
153 -332 377 0
-153 -332 -377 0
154 332 -378 0
-154 332 378 0
154 -332 378 0
-154 -332 -378 0
155 332 -379 0
-155 332 379 0
155 -332 379 0
-155 -332 -379 0
156 332 -380 0
-156 332 380 0
156 -332 380 0
-156 -332 -380 0
157 332 -381 0
-157 332 381 0
157 -332 381 0
-157 -332 -381 0
158 332 -382 0
-158 332 382 0
158 -332 382 0
-158 -332 -382 0
159 332 -383 0
-159 332 383 0
159 -332 383 0
-159 -332 -383 0
160 332 -384 0
-160 332 384 0
160 -332 384 0
-160 -332 -384 0
161 332 -385 0
-161 332 385 0
161 -332 385 0
-161 -332 -385 0
162 332 -386 0
-162 332 386 0
162 -332 386 0
-162 -332 -386 0
163 332 -387 0
-163 332 387 0
163 -332 387 0
-163 -332 -387 0
164 332 -388 0
-164 332 388 0
164 -332 388 0
-164 -332 -388 0
165 332 -389 0
-165 332 389 0
165 -332 389 0
-165 -332 -389 0
166 332 -390 0
-166 332 390 0
166 -332 390 0
-166 -332 -390 0
167 332 -391 0
-167 332 391 0
167 -332 391 0
-167 -332 -391 0
168 332 -392 0
-168 332 392 0
168 -332 392 0
-168 -332 -392 0
169 332 -393 0
-169 332 393 0
169 -332 393 0
-169 -332 -393 0
170 332 -394 0
-170 332 394 0
170 -332 394 0
-170 -332 -394 0
171 332 -395 0
-171 332 395 0
171 -332 395 0
-171 -332 -395 0
172 332 -396 0
-172 332 396 0
172 -332 396 0
-172 -332 -396 0
173 332 -397 0
-173 332 397 0
173 -332 397 0
-173 -332 -397 0
174 332 -398 0
-174 332 398 0
174 -332 398 0
-174 -332 -398 0
175 332 -399 0
-175 332 399 0
175 -332 399 0
-175 -332 -399 0
176 332 -400 0
-176 332 400 0
176 -332 400 0
-176 -332 -400 0
177 332 -401 0
-177 332 401 0
177 -332 401 0
-177 -332 -401 0
178 332 -402 0
-178 332 402 0
178 -332 402 0
-178 -332 -402 0
179 332 -403 0
-179 332 403 0
179 -332 403 0
-179 -332 -403 0
180 332 -404 0
-180 332 404 0
180 -332 404 0
-180 -332 -404 0
181 332 -405 0
-181 332 405 0
181 -332 405 0
-181 -332 -405 0
182 332 -406 0
-182 332 406 0
182 -332 406 0
-182 -332 -406 0
183 332 -407 0
-183 332 407 0
183 -332 407 0
-183 -332 -407 0
184 332 -408 0
-184 332 408 0
184 -332 408 0
-184 -332 -408 0
185 332 -409 0
-185 332 409 0
185 -332 409 0
-185 -332 -409 0
186 332 -410 0
-186 332 410 0
186 -332 410 0
-186 -332 -410 0
187 332 -411 0
-187 332 411 0
187 -332 411 0
-187 -332 -411 0
188 332 -412 0
-188 332 412 0
188 -332 412 0
-188 -332 -412 0
189 332 -413 0
-189 332 413 0
189 -332 413 0
-189 -332 -413 0
190 332 -414 0
-190 332 414 0
190 -332 414 0
-190 -332 -414 0
191 332 -415 0
-191 332 415 0
191 -332 415 0
-191 -332 -415 0
192 332 -416 0
-192 332 416 0
192 -332 416 0
-192 -332 -416 0
193 332 -417 0
-193 332 417 0
193 -332 417 0
-193 -332 -417 0
194 332 -418 0
-194 332 418 0
194 -332 418 0
-194 -332 -418 0
195 332 -419 0
-195 332 419 0
195 -332 419 0
-195 -332 -419 0
196 332 -420 0
-196 332 420 0
196 -332 420 0
-196 -332 -420 0
197 332 -421 0
-197 332 421 0
197 -332 421 0
-197 -332 -421 0
198 332 -422 0
-198 332 422 0
198 -332 422 0
-198 -332 -422 0
199 332 -423 0
-199 332 423 0
199 -332 423 0
-199 -332 -423 0
200 332 -424 0
-200 332 424 0
200 -332 424 0
-200 -332 -424 0
201 332 -425 0
-201 332 425 0
201 -332 425 0
-201 -332 -425 0
202 332 -426 0
-202 332 426 0
202 -332 426 0
-202 -332 -426 0
203 332 -427 0
-203 332 427 0
203 -332 427 0
-203 -332 -427 0
204 332 -428 0
-204 332 428 0
204 -332 428 0
-204 -332 -428 0
205 332 -429 0
-205 332 429 0
205 -332 429 0
-205 -332 -429 0
206 332 -430 0
-206 332 430 0
206 -332 430 0
-206 -332 -430 0
207 332 -431 0
-207 332 431 0
207 -332 431 0
-207 -332 -431 0
208 332 -432 0
-208 332 432 0
208 -332 432 0
-208 -332 -432 0
209 332 -433 0
-209 332 433 0
209 -332 433 0
-209 -332 -433 0
210 332 -434 0
-210 332 434 0
210 -332 434 0
-210 -332 -434 0
211 332 -435 0
-211 332 435 0
211 -332 435 0
-211 -332 -435 0
212 332 -436 0
-212 332 436 0
212 -332 436 0
-212 -332 -436 0
213 332 -437 0
-213 332 437 0
213 -332 437 0
-213 -332 -437 0
214 332 -438 0
-214 332 438 0
214 -332 438 0
-214 -332 -438 0
215 332 -439 0
-215 332 439 0
215 -332 439 0
-215 -332 -439 0
216 332 -440 0
-216 332 440 0
216 -332 440 0
-216 -332 -440 0
217 332 -441 0
-217 332 441 0
217 -332 441 0
-217 -332 -441 0
218 332 -442 0
-218 332 442 0
218 -332 442 0
-218 -332 -442 0
219 332 -443 0
-219 332 443 0
219 -332 443 0
-219 -332 -443 0
220 332 -444 0
-220 332 444 0
220 -332 444 0
-220 -332 -444 0
1 335 -446 0
-1 335 446 0
1 -335 446 0
-1 -335 -446 0
446 332 -221 0
-446 332 221 0
446 -332 221 0
-446 -332 -221 0
332 -447 0
446 -447 0
-332 -446 447 0
335 -448 0
1 -448 0
-335 -1 448 0
-447 445 0
-448 445 0
447 448 -445 0
2 336 -450 0
-2 336 450 0
2 -336 450 0
-2 -336 -450 0
450 445 -222 0
-450 445 222 0
450 -445 222 0
-450 -445 -222 0
445 -451 0
450 -451 0
-445 -450 451 0
336 -452 0
2 -452 0
-336 -2 452 0
-451 449 0
-452 449 0
451 452 -449 0
3 337 -454 0
-3 337 454 0
3 -337 454 0
-3 -337 -454 0
454 449 -223 0
-454 449 223 0
454 -449 223 0
-454 -449 -223 0
449 -455 0
454 -455 0
-449 -454 455 0
337 -456 0
3 -456 0
-337 -3 456 0
-455 453 0
-456 453 0
455 456 -453 0
4 338 -458 0
-4 338 458 0
4 -338 458 0
-4 -338 -458 0
458 453 -224 0
-458 453 224 0
458 -453 224 0
-458 -453 -224 0
453 -459 0
458 -459 0
-453 -458 459 0
338 -460 0
4 -460 0
-338 -4 460 0
-459 457 0
-460 457 0
459 460 -457 0
5 339 -462 0
-5 339 462 0
5 -339 462 0
-5 -339 -462 0
462 457 -225 0
-462 457 225 0
462 -457 225 0
-462 -457 -225 0
457 -463 0
462 -463 0
-457 -462 463 0
339 -464 0
5 -464 0
-339 -5 464 0
-463 461 0
-464 461 0
463 464 -461 0
6 340 -466 0
-6 340 466 0
6 -340 466 0
-6 -340 -466 0
466 461 -226 0
-466 461 226 0
466 -461 226 0
-466 -461 -226 0
461 -467 0
466 -467 0
-461 -466 467 0
340 -468 0
6 -468 0
-340 -6 468 0
-467 465 0
-468 465 0
467 468 -465 0
7 341 -470 0
-7 341 470 0
7 -341 470 0
-7 -341 -470 0
470 465 -227 0
-470 465 227 0
470 -465 227 0
-470 -465 -227 0
465 -471 0
470 -471 0
-465 -470 471 0
341 -472 0
7 -472 0
-341 -7 472 0
-471 469 0
-472 469 0
471 472 -469 0
8 342 -474 0
-8 342 474 0
8 -342 474 0
-8 -342 -474 0
474 469 -228 0
-474 469 228 0
474 -469 228 0
-474 -469 -228 0
469 -475 0
474 -475 0
-469 -474 475 0
342 -476 0
8 -476 0
-342 -8 476 0
-475 473 0
-476 473 0
475 476 -473 0
9 343 -478 0
-9 343 478 0
9 -343 478 0
-9 -343 -478 0
478 473 -229 0
-478 473 229 0
478 -473 229 0
-478 -473 -229 0
473 -479 0
478 -479 0
-473 -478 479 0
343 -480 0
9 -480 0
-343 -9 480 0
-479 477 0
-480 477 0
479 480 -477 0
10 344 -482 0
-10 344 482 0
10 -344 482 0
-10 -344 -482 0
482 477 -230 0
-482 477 230 0
482 -477 230 0
-482 -477 -230 0
477 -483 0
482 -483 0
-477 -482 483 0
344 -484 0
10 -484 0
-344 -10 484 0
-483 481 0
-484 481 0
483 484 -481 0
11 345 -486 0
-11 345 486 0
11 -345 486 0
-11 -345 -486 0
486 481 -231 0
-486 481 231 0
486 -481 231 0
-486 -481 -231 0
481 -487 0
486 -487 0
-481 -486 487 0
345 -488 0
11 -488 0
-345 -11 488 0
-487 485 0
-488 485 0
487 488 -485 0
12 346 -490 0
-12 346 490 0
12 -346 490 0
-12 -346 -490 0
490 485 -232 0
-490 485 232 0
490 -485 232 0
-490 -485 -232 0
485 -491 0
490 -491 0
-485 -490 491 0
346 -492 0
12 -492 0
-346 -12 492 0
-491 489 0
-492 489 0
491 492 -489 0
13 347 -494 0
-13 347 494 0
13 -347 494 0
-13 -347 -494 0
494 489 -233 0
-494 489 233 0
494 -489 233 0
-494 -489 -233 0
489 -495 0
494 -495 0
-489 -494 495 0
347 -496 0
13 -496 0
-347 -13 496 0
-495 493 0
-496 493 0
495 496 -493 0
14 348 -498 0
-14 348 498 0
14 -348 498 0
-14 -348 -498 0
498 493 -234 0
-498 493 234 0
498 -493 234 0
-498 -493 -234 0
493 -499 0
498 -499 0
-493 -498 499 0
348 -500 0
14 -500 0
-348 -14 500 0
-499 497 0
-500 497 0
499 500 -497 0
15 349 -502 0
-15 349 502 0
15 -349 502 0
-15 -349 -502 0
502 497 -235 0
-502 497 235 0
502 -497 235 0
-502 -497 -235 0
497 -503 0
502 -503 0
-497 -502 503 0
349 -504 0
15 -504 0
-349 -15 504 0
-503 501 0
-504 501 0
503 504 -501 0
16 350 -506 0
-16 350 506 0
16 -350 506 0
-16 -350 -506 0
506 501 -236 0
-506 501 236 0
506 -501 236 0
-506 -501 -236 0
501 -507 0
506 -507 0
-501 -506 507 0
350 -508 0
16 -508 0
-350 -16 508 0
-507 505 0
-508 505 0
507 508 -505 0
17 351 -510 0
-17 351 510 0
17 -351 510 0
-17 -351 -510 0
510 505 -237 0
-510 505 237 0
510 -505 237 0
-510 -505 -237 0
505 -511 0
510 -511 0
-505 -510 511 0
351 -512 0
17 -512 0
-351 -17 512 0
-511 509 0
-512 509 0
511 512 -509 0
18 352 -514 0
-18 352 514 0
18 -352 514 0
-18 -352 -514 0
514 509 -238 0
-514 509 238 0
514 -509 238 0
-514 -509 -238 0
509 -515 0
514 -515 0
-509 -514 515 0
352 -516 0
18 -516 0
-352 -18 516 0
-515 513 0
-516 513 0
515 516 -513 0
19 353 -518 0
-19 353 518 0
19 -353 518 0
-19 -353 -518 0
518 513 -239 0
-518 513 239 0
518 -513 239 0
-518 -513 -239 0
513 -519 0
518 -519 0
-513 -518 519 0
353 -520 0
19 -520 0
-353 -19 520 0
-519 517 0
-520 517 0
519 520 -517 0
20 354 -522 0
-20 354 522 0
20 -354 522 0
-20 -354 -522 0
522 517 -240 0
-522 517 240 0
522 -517 240 0
-522 -517 -240 0
517 -523 0
522 -523 0
-517 -522 523 0
354 -524 0
20 -524 0
-354 -20 524 0
-523 521 0
-524 521 0
523 524 -521 0
21 355 -526 0
-21 355 526 0
21 -355 526 0
-21 -355 -526 0
526 521 -241 0
-526 521 241 0
526 -521 241 0
-526 -521 -241 0
521 -527 0
526 -527 0
-521 -526 527 0
355 -528 0
21 -528 0
-355 -21 528 0
-527 525 0
-528 525 0
527 528 -525 0
22 356 -530 0
-22 356 530 0
22 -356 530 0
-22 -356 -530 0
530 525 -242 0
-530 525 242 0
530 -525 242 0
-530 -525 -242 0
525 -531 0
530 -531 0
-525 -530 531 0
356 -532 0
22 -532 0
-356 -22 532 0
-531 529 0
-532 529 0
531 532 -529 0
23 357 -534 0
-23 357 534 0
23 -357 534 0
-23 -357 -534 0
534 529 -243 0
-534 529 243 0
534 -529 243 0
-534 -529 -243 0
529 -535 0
534 -535 0
-529 -534 535 0
357 -536 0
23 -536 0
-357 -23 536 0
-535 533 0
-536 533 0
535 536 -533 0
24 358 -538 0
-24 358 538 0
24 -358 538 0
-24 -358 -538 0
538 533 -244 0
-538 533 244 0
538 -533 244 0
-538 -533 -244 0
533 -539 0
538 -539 0
-533 -538 539 0
358 -540 0
24 -540 0
-358 -24 540 0
-539 537 0
-540 537 0
539 540 -537 0
25 359 -542 0
-25 359 542 0
25 -359 542 0
-25 -359 -542 0
542 537 -245 0
-542 537 245 0
542 -537 245 0
-542 -537 -245 0
537 -543 0
542 -543 0
-537 -542 543 0
359 -544 0
25 -544 0
-359 -25 544 0
-543 541 0
-544 541 0
543 544 -541 0
26 360 -546 0
-26 360 546 0
26 -360 546 0
-26 -360 -546 0
546 541 -246 0
-546 541 246 0
546 -541 246 0
-546 -541 -246 0
541 -547 0
546 -547 0
-541 -546 547 0
360 -548 0
26 -548 0
-360 -26 548 0
-547 545 0
-548 545 0
547 548 -545 0
27 361 -550 0
-27 361 550 0
27 -361 550 0
-27 -361 -550 0
550 545 -247 0
-550 545 247 0
550 -545 247 0
-550 -545 -247 0
545 -551 0
550 -551 0
-545 -550 551 0
361 -552 0
27 -552 0
-361 -27 552 0
-551 549 0
-552 549 0
551 552 -549 0
28 362 -554 0
-28 362 554 0
28 -362 554 0
-28 -362 -554 0
554 549 -248 0
-554 549 248 0
554 -549 248 0
-554 -549 -248 0
549 -555 0
554 -555 0
-549 -554 555 0
362 -556 0
28 -556 0
-362 -28 556 0
-555 553 0
-556 553 0
555 556 -553 0
29 363 -558 0
-29 363 558 0
29 -363 558 0
-29 -363 -558 0
558 553 -249 0
-558 553 249 0
558 -553 249 0
-558 -553 -249 0
553 -559 0
558 -559 0
-553 -558 559 0
363 -560 0
29 -560 0
-363 -29 560 0
-559 557 0
-560 557 0
559 560 -557 0
30 364 -562 0
-30 364 562 0
30 -364 562 0
-30 -364 -562 0
562 557 -250 0
-562 557 250 0
562 -557 250 0
-562 -557 -250 0
557 -563 0
562 -563 0
-557 -562 563 0
364 -564 0
30 -564 0
-364 -30 564 0
-563 561 0
-564 561 0
563 564 -561 0
31 365 -566 0
-31 365 566 0
31 -365 566 0
-31 -365 -566 0
566 561 -251 0
-566 561 251 0
566 -561 251 0
-566 -561 -251 0
561 -567 0
566 -567 0
-561 -566 567 0
365 -568 0
31 -568 0
-365 -31 568 0
-567 565 0
-568 565 0
567 568 -565 0
32 366 -570 0
-32 366 570 0
32 -366 570 0
-32 -366 -570 0
570 565 -252 0
-570 565 252 0
570 -565 252 0
-570 -565 -252 0
565 -571 0
570 -571 0
-565 -570 571 0
366 -572 0
32 -572 0
-366 -32 572 0
-571 569 0
-572 569 0
571 572 -569 0
33 367 -574 0
-33 367 574 0
33 -367 574 0
-33 -367 -574 0
574 569 -253 0
-574 569 253 0
574 -569 253 0
-574 -569 -253 0
569 -575 0
574 -575 0
-569 -574 575 0
367 -576 0
33 -576 0
-367 -33 576 0
-575 573 0
-576 573 0
575 576 -573 0
34 368 -578 0
-34 368 578 0
34 -368 578 0
-34 -368 -578 0
578 573 -254 0
-578 573 254 0
578 -573 254 0
-578 -573 -254 0
573 -579 0
578 -579 0
-573 -578 579 0
368 -580 0
34 -580 0
-368 -34 580 0
-579 577 0
-580 577 0
579 580 -577 0
35 369 -582 0
-35 369 582 0
35 -369 582 0
-35 -369 -582 0
582 577 -255 0
-582 577 255 0
582 -577 255 0
-582 -577 -255 0
577 -583 0
582 -583 0
-577 -582 583 0
369 -584 0
35 -584 0
-369 -35 584 0
-583 581 0
-584 581 0
583 584 -581 0
36 370 -586 0
-36 370 586 0
36 -370 586 0
-36 -370 -586 0
586 581 -256 0
-586 581 256 0
586 -581 256 0
-586 -581 -256 0
581 -587 0
586 -587 0
-581 -586 587 0
370 -588 0
36 -588 0
-370 -36 588 0
-587 585 0
-588 585 0
587 588 -585 0
37 371 -590 0
-37 371 590 0
37 -371 590 0
-37 -371 -590 0
590 585 -257 0
-590 585 257 0
590 -585 257 0
-590 -585 -257 0
585 -591 0
590 -591 0
-585 -590 591 0
371 -592 0
37 -592 0
-371 -37 592 0
-591 589 0
-592 589 0
591 592 -589 0
38 372 -594 0
-38 372 594 0
38 -372 594 0
-38 -372 -594 0
594 589 -258 0
-594 589 258 0
594 -589 258 0
-594 -589 -258 0
589 -595 0
594 -595 0
-589 -594 595 0
372 -596 0
38 -596 0
-372 -38 596 0
-595 593 0
-596 593 0
595 596 -593 0
39 373 -598 0
-39 373 598 0
39 -373 598 0
-39 -373 -598 0
598 593 -259 0
-598 593 259 0
598 -593 259 0
-598 -593 -259 0
593 -599 0
598 -599 0
-593 -598 599 0
373 -600 0
39 -600 0
-373 -39 600 0
-599 597 0
-600 597 0
599 600 -597 0
40 374 -602 0
-40 374 602 0
40 -374 602 0
-40 -374 -602 0
602 597 -260 0
-602 597 260 0
602 -597 260 0
-602 -597 -260 0
597 -603 0
602 -603 0
-597 -602 603 0
374 -604 0
40 -604 0
-374 -40 604 0
-603 601 0
-604 601 0
603 604 -601 0
41 375 -606 0
-41 375 606 0
41 -375 606 0
-41 -375 -606 0
606 601 -261 0
-606 601 261 0
606 -601 261 0
-606 -601 -261 0
601 -607 0
606 -607 0
-601 -606 607 0
375 -608 0
41 -608 0
-375 -41 608 0
-607 605 0
-608 605 0
607 608 -605 0
42 376 -610 0
-42 376 610 0
42 -376 610 0
-42 -376 -610 0
610 605 -262 0
-610 605 262 0
610 -605 262 0
-610 -605 -262 0
605 -611 0
610 -611 0
-605 -610 611 0
376 -612 0
42 -612 0
-376 -42 612 0
-611 609 0
-612 609 0
611 612 -609 0
43 377 -614 0
-43 377 614 0
43 -377 614 0
-43 -377 -614 0
614 609 -263 0
-614 609 263 0
614 -609 263 0
-614 -609 -263 0
609 -615 0
614 -615 0
-609 -614 615 0
377 -616 0
43 -616 0
-377 -43 616 0
-615 613 0
-616 613 0
615 616 -613 0
44 378 -618 0
-44 378 618 0
44 -378 618 0
-44 -378 -618 0
618 613 -264 0
-618 613 264 0
618 -613 264 0
-618 -613 -264 0
613 -619 0
618 -619 0
-613 -618 619 0
378 -620 0
44 -620 0
-378 -44 620 0
-619 617 0
-620 617 0
619 620 -617 0
45 379 -622 0
-45 379 622 0
45 -379 622 0
-45 -379 -622 0
622 617 -265 0
-622 617 265 0
622 -617 265 0
-622 -617 -265 0
617 -623 0
622 -623 0
-617 -622 623 0
379 -624 0
45 -624 0
-379 -45 624 0
-623 621 0
-624 621 0
623 624 -621 0
46 380 -626 0
-46 380 626 0
46 -380 626 0
-46 -380 -626 0
626 621 -266 0
-626 621 266 0
626 -621 266 0
-626 -621 -266 0
621 -627 0
626 -627 0
-621 -626 627 0
380 -628 0
46 -628 0
-380 -46 628 0
-627 625 0
-628 625 0
627 628 -625 0
47 381 -630 0
-47 381 630 0
47 -381 630 0
-47 -381 -630 0
630 625 -267 0
-630 625 267 0
630 -625 267 0
-630 -625 -267 0
625 -631 0
630 -631 0
-625 -630 631 0
381 -632 0
47 -632 0
-381 -47 632 0
-631 629 0
-632 629 0
631 632 -629 0
48 382 -634 0
-48 382 634 0
48 -382 634 0
-48 -382 -634 0
634 629 -268 0
-634 629 268 0
634 -629 268 0
-634 -629 -268 0
629 -635 0
634 -635 0
-629 -634 635 0
382 -636 0
48 -636 0
-382 -48 636 0
-635 633 0
-636 633 0
635 636 -633 0
49 383 -638 0
-49 383 638 0
49 -383 638 0
-49 -383 -638 0
638 633 -269 0
-638 633 269 0
638 -633 269 0
-638 -633 -269 0
633 -639 0
638 -639 0
-633 -638 639 0
383 -640 0
49 -640 0
-383 -49 640 0
-639 637 0
-640 637 0
639 640 -637 0
50 384 -642 0
-50 384 642 0
50 -384 642 0
-50 -384 -642 0
642 637 -270 0
-642 637 270 0
642 -637 270 0
-642 -637 -270 0
637 -643 0
642 -643 0
-637 -642 643 0
384 -644 0
50 -644 0
-384 -50 644 0
-643 641 0
-644 641 0
643 644 -641 0
51 385 -646 0
-51 385 646 0
51 -385 646 0
-51 -385 -646 0
646 641 -271 0
-646 641 271 0
646 -641 271 0
-646 -641 -271 0
641 -647 0
646 -647 0
-641 -646 647 0
385 -648 0
51 -648 0
-385 -51 648 0
-647 645 0
-648 645 0
647 648 -645 0
52 386 -650 0
-52 386 650 0
52 -386 650 0
-52 -386 -650 0
650 645 -272 0
-650 645 272 0
650 -645 272 0
-650 -645 -272 0
645 -651 0
650 -651 0
-645 -650 651 0
386 -652 0
52 -652 0
-386 -52 652 0
-651 649 0
-652 649 0
651 652 -649 0
53 387 -654 0
-53 387 654 0
53 -387 654 0
-53 -387 -654 0
654 649 -273 0
-654 649 273 0
654 -649 273 0
-654 -649 -273 0
649 -655 0
654 -655 0
-649 -654 655 0
387 -656 0
53 -656 0
-387 -53 656 0
-655 653 0
-656 653 0
655 656 -653 0
54 388 -658 0
-54 388 658 0
54 -388 658 0
-54 -388 -658 0
658 653 -274 0
-658 653 274 0
658 -653 274 0
-658 -653 -274 0
653 -659 0
658 -659 0
-653 -658 659 0
388 -660 0
54 -660 0
-388 -54 660 0
-659 657 0
-660 657 0
659 660 -657 0
55 389 -662 0
-55 389 662 0
55 -389 662 0
-55 -389 -662 0
662 657 -275 0
-662 657 275 0
662 -657 275 0
-662 -657 -275 0
657 -663 0
662 -663 0
-657 -662 663 0
389 -664 0
55 -664 0
-389 -55 664 0
-663 661 0
-664 661 0
663 664 -661 0
56 390 -666 0
-56 390 666 0
56 -390 666 0
-56 -390 -666 0
666 661 -276 0
-666 661 276 0
666 -661 276 0
-666 -661 -276 0
661 -667 0
666 -667 0
-661 -666 667 0
390 -668 0
56 -668 0
-390 -56 668 0
-667 665 0
-668 665 0
667 668 -665 0
57 391 -670 0
-57 391 670 0
57 -391 670 0
-57 -391 -670 0
670 665 -277 0
-670 665 277 0
670 -665 277 0
-670 -665 -277 0
665 -671 0
670 -671 0
-665 -670 671 0
391 -672 0
57 -672 0
-391 -57 672 0
-671 669 0
-672 669 0
671 672 -669 0
58 392 -674 0
-58 392 674 0
58 -392 674 0
-58 -392 -674 0
674 669 -278 0
-674 669 278 0
674 -669 278 0
-674 -669 -278 0
669 -675 0
674 -675 0
-669 -674 675 0
392 -676 0
58 -676 0
-392 -58 676 0
-675 673 0
-676 673 0
675 676 -673 0
59 393 -678 0
-59 393 678 0
59 -393 678 0
-59 -393 -678 0
678 673 -279 0
-678 673 279 0
678 -673 279 0
-678 -673 -279 0
673 -679 0
678 -679 0
-673 -678 679 0
393 -680 0
59 -680 0
-393 -59 680 0
-679 677 0
-680 677 0
679 680 -677 0
60 394 -682 0
-60 394 682 0
60 -394 682 0
-60 -394 -682 0
682 677 -280 0
-682 677 280 0
682 -677 280 0
-682 -677 -280 0
677 -683 0
682 -683 0
-677 -682 683 0
394 -684 0
60 -684 0
-394 -60 684 0
-683 681 0
-684 681 0
683 684 -681 0
61 395 -686 0
-61 395 686 0
61 -395 686 0
-61 -395 -686 0
686 681 -281 0
-686 681 281 0
686 -681 281 0
-686 -681 -281 0
681 -687 0
686 -687 0
-681 -686 687 0
395 -688 0
61 -688 0
-395 -61 688 0
-687 685 0
-688 685 0
687 688 -685 0
62 396 -690 0
-62 396 690 0
62 -396 690 0
-62 -396 -690 0
690 685 -282 0
-690 685 282 0
690 -685 282 0
-690 -685 -282 0
685 -691 0
690 -691 0
-685 -690 691 0
396 -692 0
62 -692 0
-396 -62 692 0
-691 689 0
-692 689 0
691 692 -689 0
63 397 -694 0
-63 397 694 0
63 -397 694 0
-63 -397 -694 0
694 689 -283 0
-694 689 283 0
694 -689 283 0
-694 -689 -283 0
689 -695 0
694 -695 0
-689 -694 695 0
397 -696 0
63 -696 0
-397 -63 696 0
-695 693 0
-696 693 0
695 696 -693 0
64 398 -698 0
-64 398 698 0
64 -398 698 0
-64 -398 -698 0
698 693 -284 0
-698 693 284 0
698 -693 284 0
-698 -693 -284 0
693 -699 0
698 -699 0
-693 -698 699 0
398 -700 0
64 -700 0
-398 -64 700 0
-699 697 0
-700 697 0
699 700 -697 0
65 399 -702 0
-65 399 702 0
65 -399 702 0
-65 -399 -702 0
702 697 -285 0
-702 697 285 0
702 -697 285 0
-702 -697 -285 0
697 -703 0
702 -703 0
-697 -702 703 0
399 -704 0
65 -704 0
-399 -65 704 0
-703 701 0
-704 701 0
703 704 -701 0
66 400 -706 0
-66 400 706 0
66 -400 706 0
-66 -400 -706 0
706 701 -286 0
-706 701 286 0
706 -701 286 0
-706 -701 -286 0
701 -707 0
706 -707 0
-701 -706 707 0
400 -708 0
66 -708 0
-400 -66 708 0
-707 705 0
-708 705 0
707 708 -705 0
67 401 -710 0
-67 401 710 0
67 -401 710 0
-67 -401 -710 0
710 705 -287 0
-710 705 287 0
710 -705 287 0
-710 -705 -287 0
705 -711 0
710 -711 0
-705 -710 711 0
401 -712 0
67 -712 0
-401 -67 712 0
-711 709 0
-712 709 0
711 712 -709 0
68 402 -714 0
-68 402 714 0
68 -402 714 0
-68 -402 -714 0
714 709 -288 0
-714 709 288 0
714 -709 288 0
-714 -709 -288 0
709 -715 0
714 -715 0
-709 -714 715 0
402 -716 0
68 -716 0
-402 -68 716 0
-715 713 0
-716 713 0
715 716 -713 0
69 403 -718 0
-69 403 718 0
69 -403 718 0
-69 -403 -718 0
718 713 -289 0
-718 713 289 0
718 -713 289 0
-718 -713 -289 0
713 -719 0
718 -719 0
-713 -718 719 0
403 -720 0
69 -720 0
-403 -69 720 0
-719 717 0
-720 717 0
719 720 -717 0
70 404 -722 0
-70 404 722 0
70 -404 722 0
-70 -404 -722 0
722 717 -290 0
-722 717 290 0
722 -717 290 0
-722 -717 -290 0
717 -723 0
722 -723 0
-717 -722 723 0
404 -724 0
70 -724 0
-404 -70 724 0
-723 721 0
-724 721 0
723 724 -721 0
71 405 -726 0
-71 405 726 0
71 -405 726 0
-71 -405 -726 0
726 721 -291 0
-726 721 291 0
726 -721 291 0
-726 -721 -291 0
721 -727 0
726 -727 0
-721 -726 727 0
405 -728 0
71 -728 0
-405 -71 728 0
-727 725 0
-728 725 0
727 728 -725 0
72 406 -730 0
-72 406 730 0
72 -406 730 0
-72 -406 -730 0
730 725 -292 0
-730 725 292 0
730 -725 292 0
-730 -725 -292 0
725 -731 0
730 -731 0
-725 -730 731 0
406 -732 0
72 -732 0
-406 -72 732 0
-731 729 0
-732 729 0
731 732 -729 0
73 407 -734 0
-73 407 734 0
73 -407 734 0
-73 -407 -734 0
734 729 -293 0
-734 729 293 0
734 -729 293 0
-734 -729 -293 0
729 -735 0
734 -735 0
-729 -734 735 0
407 -736 0
73 -736 0
-407 -73 736 0
-735 733 0
-736 733 0
735 736 -733 0
74 408 -738 0
-74 408 738 0
74 -408 738 0
-74 -408 -738 0
738 733 -294 0
-738 733 294 0
738 -733 294 0
-738 -733 -294 0
733 -739 0
738 -739 0
-733 -738 739 0
408 -740 0
74 -740 0
-408 -74 740 0
-739 737 0
-740 737 0
739 740 -737 0
75 409 -742 0
-75 409 742 0
75 -409 742 0
-75 -409 -742 0
742 737 -295 0
-742 737 295 0
742 -737 295 0
-742 -737 -295 0
737 -743 0
742 -743 0
-737 -742 743 0
409 -744 0
75 -744 0
-409 -75 744 0
-743 741 0
-744 741 0
743 744 -741 0
76 410 -746 0
-76 410 746 0
76 -410 746 0
-76 -410 -746 0
746 741 -296 0
-746 741 296 0
746 -741 296 0
-746 -741 -296 0
741 -747 0
746 -747 0
-741 -746 747 0
410 -748 0
76 -748 0
-410 -76 748 0
-747 745 0
-748 745 0
747 748 -745 0
77 411 -750 0
-77 411 750 0
77 -411 750 0
-77 -411 -750 0
750 745 -297 0
-750 745 297 0
750 -745 297 0
-750 -745 -297 0
745 -751 0
750 -751 0
-745 -750 751 0
411 -752 0
77 -752 0
-411 -77 752 0
-751 749 0
-752 749 0
751 752 -749 0
78 412 -754 0
-78 412 754 0
78 -412 754 0
-78 -412 -754 0
754 749 -298 0
-754 749 298 0
754 -749 298 0
-754 -749 -298 0
749 -755 0
754 -755 0
-749 -754 755 0
412 -756 0
78 -756 0
-412 -78 756 0
-755 753 0
-756 753 0
755 756 -753 0
79 413 -758 0
-79 413 758 0
79 -413 758 0
-79 -413 -758 0
758 753 -299 0
-758 753 299 0
758 -753 299 0
-758 -753 -299 0
753 -759 0
758 -759 0
-753 -758 759 0
413 -760 0
79 -760 0
-413 -79 760 0
-759 757 0
-760 757 0
759 760 -757 0
80 414 -762 0
-80 414 762 0
80 -414 762 0
-80 -414 -762 0
762 757 -300 0
-762 757 300 0
762 -757 300 0
-762 -757 -300 0
757 -763 0
762 -763 0
-757 -762 763 0
414 -764 0
80 -764 0
-414 -80 764 0
-763 761 0
-764 761 0
763 764 -761 0
81 415 -766 0
-81 415 766 0
81 -415 766 0
-81 -415 -766 0
766 761 -301 0
-766 761 301 0
766 -761 301 0
-766 -761 -301 0
761 -767 0
766 -767 0
-761 -766 767 0
415 -768 0
81 -768 0
-415 -81 768 0
-767 765 0
-768 765 0
767 768 -765 0
82 416 -770 0
-82 416 770 0
82 -416 770 0
-82 -416 -770 0
770 765 -302 0
-770 765 302 0
770 -765 302 0
-770 -765 -302 0
765 -771 0
770 -771 0
-765 -770 771 0
416 -772 0
82 -772 0
-416 -82 772 0
-771 769 0
-772 769 0
771 772 -769 0
83 417 -774 0
-83 417 774 0
83 -417 774 0
-83 -417 -774 0
774 769 -303 0
-774 769 303 0
774 -769 303 0
-774 -769 -303 0
769 -775 0
774 -775 0
-769 -774 775 0
417 -776 0
83 -776 0
-417 -83 776 0
-775 773 0
-776 773 0
775 776 -773 0
84 418 -778 0
-84 418 778 0
84 -418 778 0
-84 -418 -778 0
778 773 -304 0
-778 773 304 0
778 -773 304 0
-778 -773 -304 0
773 -779 0
778 -779 0
-773 -778 779 0
418 -780 0
84 -780 0
-418 -84 780 0
-779 777 0
-780 777 0
779 780 -777 0
85 419 -782 0
-85 419 782 0
85 -419 782 0
-85 -419 -782 0
782 777 -305 0
-782 777 305 0
782 -777 305 0
-782 -777 -305 0
777 -783 0
782 -783 0
-777 -782 783 0
419 -784 0
85 -784 0
-419 -85 784 0
-783 781 0
-784 781 0
783 784 -781 0
86 420 -786 0
-86 420 786 0
86 -420 786 0
-86 -420 -786 0
786 781 -306 0
-786 781 306 0
786 -781 306 0
-786 -781 -306 0
781 -787 0
786 -787 0
-781 -786 787 0
420 -788 0
86 -788 0
-420 -86 788 0
-787 785 0
-788 785 0
787 788 -785 0
87 421 -790 0
-87 421 790 0
87 -421 790 0
-87 -421 -790 0
790 785 -307 0
-790 785 307 0
790 -785 307 0
-790 -785 -307 0
785 -791 0
790 -791 0
-785 -790 791 0
421 -792 0
87 -792 0
-421 -87 792 0
-791 789 0
-792 789 0
791 792 -789 0
88 422 -794 0
-88 422 794 0
88 -422 794 0
-88 -422 -794 0
794 789 -308 0
-794 789 308 0
794 -789 308 0
-794 -789 -308 0
789 -795 0
794 -795 0
-789 -794 795 0
422 -796 0
88 -796 0
-422 -88 796 0
-795 793 0
-796 793 0
795 796 -793 0
89 423 -798 0
-89 423 798 0
89 -423 798 0
-89 -423 -798 0
798 793 -309 0
-798 793 309 0
798 -793 309 0
-798 -793 -309 0
793 -799 0
798 -799 0
-793 -798 799 0
423 -800 0
89 -800 0
-423 -89 800 0
-799 797 0
-800 797 0
799 800 -797 0
90 424 -802 0
-90 424 802 0
90 -424 802 0
-90 -424 -802 0
802 797 -310 0
-802 797 310 0
802 -797 310 0
-802 -797 -310 0
797 -803 0
802 -803 0
-797 -802 803 0
424 -804 0
90 -804 0
-424 -90 804 0
-803 801 0
-804 801 0
803 804 -801 0
91 425 -806 0
-91 425 806 0
91 -425 806 0
-91 -425 -806 0
806 801 -311 0
-806 801 311 0
806 -801 311 0
-806 -801 -311 0
801 -807 0
806 -807 0
-801 -806 807 0
425 -808 0
91 -808 0
-425 -91 808 0
-807 805 0
-808 805 0
807 808 -805 0
92 426 -810 0
-92 426 810 0
92 -426 810 0
-92 -426 -810 0
810 805 -312 0
-810 805 312 0
810 -805 312 0
-810 -805 -312 0
805 -811 0
810 -811 0
-805 -810 811 0
426 -812 0
92 -812 0
-426 -92 812 0
-811 809 0
-812 809 0
811 812 -809 0
93 427 -814 0
-93 427 814 0
93 -427 814 0
-93 -427 -814 0
814 809 -313 0
-814 809 313 0
814 -809 313 0
-814 -809 -313 0
809 -815 0
814 -815 0
-809 -814 815 0
427 -816 0
93 -816 0
-427 -93 816 0
-815 813 0
-816 813 0
815 816 -813 0
94 428 -818 0
-94 428 818 0
94 -428 818 0
-94 -428 -818 0
818 813 -314 0
-818 813 314 0
818 -813 314 0
-818 -813 -314 0
813 -819 0
818 -819 0
-813 -818 819 0
428 -820 0
94 -820 0
-428 -94 820 0
-819 817 0
-820 817 0
819 820 -817 0
95 429 -822 0
-95 429 822 0
95 -429 822 0
-95 -429 -822 0
822 817 -315 0
-822 817 315 0
822 -817 315 0
-822 -817 -315 0
817 -823 0
822 -823 0
-817 -822 823 0
429 -824 0
95 -824 0
-429 -95 824 0
-823 821 0
-824 821 0
823 824 -821 0
96 430 -826 0
-96 430 826 0
96 -430 826 0
-96 -430 -826 0
826 821 -316 0
-826 821 316 0
826 -821 316 0
-826 -821 -316 0
821 -827 0
826 -827 0
-821 -826 827 0
430 -828 0
96 -828 0
-430 -96 828 0
-827 825 0
-828 825 0
827 828 -825 0
97 431 -830 0
-97 431 830 0
97 -431 830 0
-97 -431 -830 0
830 825 -317 0
-830 825 317 0
830 -825 317 0
-830 -825 -317 0
825 -831 0
830 -831 0
-825 -830 831 0
431 -832 0
97 -832 0
-431 -97 832 0
-831 829 0
-832 829 0
831 832 -829 0
98 432 -834 0
-98 432 834 0
98 -432 834 0
-98 -432 -834 0
834 829 -318 0
-834 829 318 0
834 -829 318 0
-834 -829 -318 0
829 -835 0
834 -835 0
-829 -834 835 0
432 -836 0
98 -836 0
-432 -98 836 0
-835 833 0
-836 833 0
835 836 -833 0
99 433 -838 0
-99 433 838 0
99 -433 838 0
-99 -433 -838 0
838 833 -319 0
-838 833 319 0
838 -833 319 0
-838 -833 -319 0
833 -839 0
838 -839 0
-833 -838 839 0
433 -840 0
99 -840 0
-433 -99 840 0
-839 837 0
-840 837 0
839 840 -837 0
100 434 -842 0
-100 434 842 0
100 -434 842 0
-100 -434 -842 0
842 837 -320 0
-842 837 320 0
842 -837 320 0
-842 -837 -320 0
837 -843 0
842 -843 0
-837 -842 843 0
434 -844 0
100 -844 0
-434 -100 844 0
-843 841 0
-844 841 0
843 844 -841 0
101 435 -846 0
-101 435 846 0
101 -435 846 0
-101 -435 -846 0
846 841 -321 0
-846 841 321 0
846 -841 321 0
-846 -841 -321 0
841 -847 0
846 -847 0
-841 -846 847 0
435 -848 0
101 -848 0
-435 -101 848 0
-847 845 0
-848 845 0
847 848 -845 0
102 436 -850 0
-102 436 850 0
102 -436 850 0
-102 -436 -850 0
850 845 -322 0
-850 845 322 0
850 -845 322 0
-850 -845 -322 0
845 -851 0
850 -851 0
-845 -850 851 0
436 -852 0
102 -852 0
-436 -102 852 0
-851 849 0
-852 849 0
851 852 -849 0
103 437 -854 0
-103 437 854 0
103 -437 854 0
-103 -437 -854 0
854 849 -323 0
-854 849 323 0
854 -849 323 0
-854 -849 -323 0
849 -855 0
854 -855 0
-849 -854 855 0
437 -856 0
103 -856 0
-437 -103 856 0
-855 853 0
-856 853 0
855 856 -853 0
104 438 -858 0
-104 438 858 0
104 -438 858 0
-104 -438 -858 0
858 853 -324 0
-858 853 324 0
858 -853 324 0
-858 -853 -324 0
853 -859 0
858 -859 0
-853 -858 859 0
438 -860 0
104 -860 0
-438 -104 860 0
-859 857 0
-860 857 0
859 860 -857 0
105 439 -862 0
-105 439 862 0
105 -439 862 0
-105 -439 -862 0
862 857 -325 0
-862 857 325 0
862 -857 325 0
-862 -857 -325 0
857 -863 0
862 -863 0
-857 -862 863 0
439 -864 0
105 -864 0
-439 -105 864 0
-863 861 0
-864 861 0
863 864 -861 0
106 440 -866 0
-106 440 866 0
106 -440 866 0
-106 -440 -866 0
866 861 -326 0
-866 861 326 0
866 -861 326 0
-866 -861 -326 0
861 -867 0
866 -867 0
-861 -866 867 0
440 -868 0
106 -868 0
-440 -106 868 0
-867 865 0
-868 865 0
867 868 -865 0
107 441 -870 0
-107 441 870 0
107 -441 870 0
-107 -441 -870 0
870 865 -327 0
-870 865 327 0
870 -865 327 0
-870 -865 -327 0
865 -871 0
870 -871 0
-865 -870 871 0
441 -872 0
107 -872 0
-441 -107 872 0
-871 869 0
-872 869 0
871 872 -869 0
108 442 -874 0
-108 442 874 0
108 -442 874 0
-108 -442 -874 0
874 869 -328 0
-874 869 328 0
874 -869 328 0
-874 -869 -328 0
869 -875 0
874 -875 0
-869 -874 875 0
442 -876 0
108 -876 0
-442 -108 876 0
-875 873 0
-876 873 0
875 876 -873 0
109 443 -878 0
-109 443 878 0
109 -443 878 0
-109 -443 -878 0
878 873 -329 0
-878 873 329 0
878 -873 329 0
-878 -873 -329 0
873 -879 0
878 -879 0
-873 -878 879 0
443 -880 0
109 -880 0
-443 -109 880 0
-879 877 0
-880 877 0
879 880 -877 0
110 444 -882 0
-110 444 882 0
110 -444 882 0
-110 -444 -882 0
882 877 -330 0
-882 877 330 0
882 -877 330 0
-882 -877 -330 0
877 -883 0
882 -883 0
-877 -882 883 0
444 -884 0
110 -884 0
-444 -110 884 0
-883 881 0
-884 881 0
883 884 -881 0
881 332 -331 0
-881 332 331 0
881 -332 331 0
-881 -332 -331 0
